26
1 0 22
2 0 1
2 1 4
3 0 19
3 1 28
3 2 5
4 0 18
4 1 31
4 2 30
4 3 27
5 0 27
5 1 19
5 2 19
5 3 29
5 4 30
6 0 31
6 1 40
6 2 19
6 3 18
6 4 20
6 5 31
7 0 5
7 1 13
7 2 38
7 3 33
7 4 10
7 5 2
7 6 36
8 0 12
8 1 4
8 2 40
8 3 26
8 4 26
8 5 19
8 6 21
8 7 15
9 0 2
9 1 38
9 2 27
9 3 13
9 4 30
9 5 27
9 6 21
9 7 17
9 8 22
10 0 34
10 1 27
10 2 23
10 3 20
10 4 2
10 5 35
10 6 21
10 7 25
10 8 21
10 9 16
11 0 11
11 1 8
11 2 9
11 3 31
11 4 5
11 5 37
11 6 20
11 7 17
11 8 38
11 9 40
11 10 14
12 0 12
12 1 27
12 2 37
12 3 35
12 4 23
12 5 8
12 6 23
12 7 9
12 8 34
12 9 10
12 10 34
12 11 11
13 0 21
13 1 1
13 2 36
13 3 32
13 4 17
13 5 8
13 6 36
13 7 28
13 8 20
13 9 18
13 10 24
13 11 31
13 12 15
14 0 17
14 1 17
14 2 11
14 3 14
14 4 5
14 5 24
14 6 20
14 7 23
14 8 29
14 9 23
14 10 1
14 11 32
14 12 40
14 13 8
15 0 36
15 1 6
15 2 30
15 3 25
15 4 29
15 5 7
15 6 5
15 7 21
15 8 36
15 9 34
15 10 39
15 11 37
15 12 12
15 13 39
15 14 25
16 0 20
16 1 30
16 2 31
16 3 12
16 4 24
16 5 28
16 6 12
16 7 15
16 8 37
16 9 30
16 10 26
16 11 29
16 12 30
16 13 17
16 14 38
16 15 15
17 0 12
17 1 6
17 2 29
17 3 28
17 4 16
17 5 39
17 6 12
17 7 22
17 8 29
17 9 9
17 10 5
17 11 11
17 12 1
17 13 18
17 14 4
17 15 7
17 16 20
18 0 19
18 1 25
18 2 9
18 3 34
18 4 40
18 5 26
18 6 39
18 7 32
18 8 13
18 9 6
18 10 36
18 11 20
18 12 7
18 13 15
18 14 26
18 15 4
18 16 24
18 17 24
19 0 37
19 1 28
19 2 15
19 3 19
19 4 6
19 5 22
19 6 25
19 7 15
19 8 31
19 9 11
19 10 6
19 11 34
19 12 13
19 13 8
19 14 9
19 15 8
19 16 4
19 17 2
19 18 19
20 0 23
20 1 18
20 2 14
20 3 5
20 4 29
20 5 40
20 6 5
20 7 39
20 8 10
20 9 40
20 10 15
20 11 19
20 12 13
20 13 39
20 14 2
20 15 8
20 16 35
20 17 11
20 18 33
20 19 20
21 0 33
21 1 37
21 2 19
21 3 28
21 4 38
21 5 15
21 6 9
21 7 23
21 8 15
21 9 27
21 10 25
21 11 7
21 12 33
21 13 4
21 14 34
21 15 15
21 16 3
21 17 29
21 18 5
21 19 22
21 20 10
22 0 39
22 1 11
22 2 3
22 3 38
22 4 16
22 5 34
22 6 2
22 7 14
22 8 10
22 9 2
22 10 5
22 11 26
22 12 10
22 13 40
22 14 1
22 15 27
22 16 9
22 17 40
22 18 36
22 19 16
22 20 36
22 21 10
23 0 5
23 1 30
23 2 16
23 3 26
23 4 30
23 5 34
23 6 4
23 7 4
23 8 39
23 9 28
23 10 36
23 11 10
23 12 5
23 13 38
23 14 7
23 15 15
23 16 9
23 17 8
23 18 31
23 19 9
23 20 2
23 21 34
23 22 35
24 0 33
24 1 8
24 2 29
24 3 28
24 4 30
24 5 26
24 6 36
24 7 16
24 8 35
24 9 32
24 10 6
24 11 14
24 12 4
24 13 1
24 14 19
24 15 35
24 16 22
24 17 4
24 18 11
24 19 9
24 20 40
24 21 9
24 22 4
24 23 6
25 0 21
25 1 9
25 2 8
25 3 13
25 4 29
25 5 22
25 6 12
25 7 33
25 8 13
25 9 31
25 10 13
25 11 1
25 12 14
25 13 34
25 14 30
25 15 32
25 16 26
25 17 21
25 18 7
25 19 37
25 20 18
25 21 13
25 22 5
25 23 39
25 24 37
